c Created with the Wolfram Language : www.wolfram.com
c 
p edge 100 967
e 2 4
e 3 10
e 8 10
e 2 11
e 6 11
e 5 12
e 9 12
e 1 13
e 6 13
e 7 13
e 10 13
e 4 14
e 6 14
e 1 15
e 12 15
e 2 16
e 7 16
e 15 16
e 1 17
e 2 17
e 8 17
e 12 17
e 7 18
e 11 18
e 3 21
e 7 21
e 10 21
e 15 21
e 16 21
e 9 22
e 11 22
e 16 22
e 17 22
e 18 22
e 8 23
e 11 23
e 5 24
e 8 24
e 13 24
e 22 24
e 10 25
e 8 26
e 17 26
e 20 26
e 23 26
e 5 27
e 11 27
e 5 28
e 10 28
e 19 28
e 23 28
e 24 28
e 27 28
e 6 29
e 10 29
e 16 29
e 19 29
e 23 29
e 20 30
e 21 30
e 27 30
e 28 30
e 12 31
e 13 31
e 14 31
e 16 31
e 17 31
e 19 31
e 21 31
e 26 31
e 28 31
e 2 32
e 4 32
e 6 32
e 13 32
e 15 32
e 23 32
e 28 32
e 1 33
e 3 33
e 9 33
e 12 33
e 16 33
e 20 33
e 27 33
e 1 34
e 17 34
e 23 34
e 25 34
e 27 34
e 30 34
e 2 35
e 5 35
e 7 35
e 10 35
e 11 35
e 15 35
e 20 35
e 25 35
e 29 35
e 4 36
e 5 36
e 10 36
e 11 36
e 15 36
e 22 36
e 32 36
e 34 36
e 2 37
e 5 37
e 7 37
e 8 37
e 11 37
e 14 37
e 17 37
e 18 37
e 20 37
e 21 37
e 26 37
e 8 38
e 10 38
e 23 38
e 25 38
e 26 38
e 27 38
e 37 38
e 7 39
e 12 39
e 17 39
e 18 39
e 22 39
e 28 39
e 29 39
e 30 39
e 32 39
e 9 40
e 16 40
e 18 40
e 19 40
e 36 40
e 8 41
e 29 41
e 36 41
e 38 41
e 40 41
e 4 42
e 8 42
e 16 42
e 33 42
e 7 43
e 15 43
e 16 43
e 22 43
e 29 43
e 30 43
e 33 43
e 36 43
e 42 43
e 3 44
e 6 44
e 15 44
e 16 44
e 18 44
e 27 44
e 1 45
e 5 45
e 6 45
e 13 45
e 19 45
e 23 45
e 31 45
e 37 45
e 38 45
e 40 45
e 42 45
e 44 45
e 2 46
e 6 46
e 15 46
e 18 46
e 22 46
e 24 46
e 25 46
e 27 46
e 36 46
e 38 46
e 1 47
e 3 47
e 10 47
e 26 47
e 28 47
e 33 47
e 36 47
e 4 48
e 9 48
e 13 48
e 18 48
e 25 48
e 35 48
e 40 48
e 2 49
e 5 49
e 6 49
e 8 49
e 12 49
e 13 49
e 14 49
e 23 49
e 26 49
e 30 49
e 38 49
e 39 49
e 44 49
e 45 49
e 47 49
e 3 50
e 4 50
e 11 50
e 12 50
e 26 50
e 39 50
e 11 51
e 16 51
e 19 51
e 21 51
e 24 51
e 30 51
e 33 51
e 37 51
e 46 51
e 11 52
e 15 52
e 23 52
e 27 52
e 31 52
e 37 52
e 39 52
e 40 52
e 46 52
e 3 53
e 11 53
e 25 53
e 29 53
e 30 53
e 31 53
e 32 53
e 42 53
e 45 53
e 15 54
e 18 54
e 26 54
e 31 54
e 34 54
e 36 54
e 39 54
e 43 54
e 45 54
e 2 55
e 15 55
e 16 55
e 20 55
e 22 55
e 24 55
e 40 55
e 42 55
e 45 55
e 47 55
e 54 55
e 6 56
e 10 56
e 13 56
e 16 56
e 32 56
e 46 56
e 48 56
e 4 57
e 19 57
e 43 57
e 47 57
e 2 58
e 5 58
e 13 58
e 22 58
e 28 58
e 30 58
e 33 58
e 36 58
e 41 58
e 42 58
e 43 58
e 44 58
e 53 58
e 5 59
e 7 59
e 16 59
e 27 59
e 34 59
e 36 59
e 40 59
e 41 59
e 48 59
e 52 59
e 53 59
e 4 60
e 5 60
e 31 60
e 33 60
e 41 60
e 48 60
e 50 60
e 52 60
e 54 60
e 57 60
e 1 61
e 6 61
e 11 61
e 14 61
e 25 61
e 45 61
e 51 61
e 56 61
e 57 61
e 58 61
e 1 62
e 5 62
e 15 62
e 22 62
e 24 62
e 25 62
e 27 62
e 34 62
e 36 62
e 42 62
e 43 62
e 46 62
e 50 62
e 51 62
e 61 62
e 2 63
e 5 63
e 13 63
e 15 63
e 18 63
e 22 63
e 25 63
e 27 63
e 30 63
e 36 63
e 37 63
e 39 63
e 41 63
e 47 63
e 49 63
e 60 63
e 8 64
e 10 64
e 14 64
e 15 64
e 16 64
e 18 64
e 19 64
e 22 64
e 23 64
e 24 64
e 35 64
e 40 64
e 49 64
e 50 64
e 59 64
e 62 64
e 17 65
e 21 65
e 22 65
e 29 65
e 35 65
e 38 65
e 39 65
e 40 65
e 55 65
e 61 65
e 64 65
e 6 66
e 9 66
e 10 66
e 12 66
e 16 66
e 32 66
e 36 66
e 38 66
e 41 66
e 42 66
e 45 66
e 54 66
e 57 66
e 58 66
e 60 66
e 64 66
e 1 67
e 2 67
e 5 67
e 6 67
e 11 67
e 19 67
e 22 67
e 29 67
e 38 67
e 42 67
e 46 67
e 47 67
e 53 67
e 58 67
e 66 67
e 1 68
e 7 68
e 17 68
e 18 68
e 23 68
e 29 68
e 30 68
e 31 68
e 33 68
e 42 68
e 7 69
e 9 69
e 13 69
e 21 69
e 29 69
e 38 69
e 43 69
e 48 69
e 57 69
e 61 69
e 66 69
e 68 69
e 3 70
e 18 70
e 19 70
e 22 70
e 23 70
e 27 70
e 29 70
e 33 70
e 41 70
e 44 70
e 46 70
e 48 70
e 49 70
e 58 70
e 65 70
e 66 70
e 1 71
e 4 71
e 6 71
e 7 71
e 12 71
e 18 71
e 19 71
e 24 71
e 31 71
e 35 71
e 39 71
e 42 71
e 43 71
e 48 71
e 49 71
e 62 71
e 2 72
e 3 72
e 5 72
e 6 72
e 11 72
e 17 72
e 19 72
e 21 72
e 23 72
e 24 72
e 26 72
e 55 72
e 13 73
e 15 73
e 19 73
e 21 73
e 23 73
e 26 73
e 54 73
e 58 73
e 60 73
e 64 73
e 65 73
e 67 73
e 71 73
e 7 74
e 8 74
e 21 74
e 23 74
e 27 74
e 37 74
e 38 74
e 44 74
e 55 74
e 56 74
e 58 74
e 61 74
e 65 74
e 18 75
e 20 75
e 21 75
e 23 75
e 25 75
e 26 75
e 37 75
e 39 75
e 41 75
e 47 75
e 51 75
e 55 75
e 60 75
e 63 75
e 65 75
e 68 75
e 74 75
e 4 76
e 14 76
e 18 76
e 22 76
e 28 76
e 30 76
e 31 76
e 43 76
e 54 76
e 56 76
e 58 76
e 62 76
e 64 76
e 65 76
e 67 76
e 68 76
e 71 76
e 6 77
e 7 77
e 11 77
e 13 77
e 31 77
e 33 77
e 44 77
e 50 77
e 51 77
e 53 77
e 55 77
e 65 77
e 71 77
e 74 77
e 1 78
e 3 78
e 7 78
e 14 78
e 24 78
e 26 78
e 29 78
e 30 78
e 39 78
e 45 78
e 49 78
e 51 78
e 52 78
e 55 78
e 57 78
e 61 78
e 69 78
e 71 78
e 2 79
e 3 79
e 7 79
e 9 79
e 36 79
e 46 79
e 47 79
e 48 79
e 53 79
e 55 79
e 56 79
e 57 79
e 58 79
e 60 79
e 61 79
e 67 79
e 5 80
e 7 80
e 9 80
e 11 80
e 13 80
e 17 80
e 18 80
e 21 80
e 43 80
e 52 80
e 60 80
e 62 80
e 65 80
e 79 80
e 4 81
e 8 81
e 20 81
e 21 81
e 29 81
e 41 81
e 44 81
e 68 81
e 69 81
e 72 81
e 77 81
e 5 82
e 6 82
e 8 82
e 12 82
e 19 82
e 23 82
e 25 82
e 32 82
e 33 82
e 36 82
e 47 82
e 49 82
e 52 82
e 53 82
e 57 82
e 61 82
e 63 82
e 72 82
e 74 82
e 75 82
e 76 82
e 81 82
e 3 83
e 8 83
e 23 83
e 39 83
e 48 83
e 52 83
e 57 83
e 67 83
e 74 83
e 78 83
e 80 83
e 6 84
e 8 84
e 15 84
e 16 84
e 22 84
e 23 84
e 30 84
e 32 84
e 33 84
e 42 84
e 43 84
e 51 84
e 55 84
e 61 84
e 62 84
e 64 84
e 70 84
e 79 84
e 8 85
e 9 85
e 10 85
e 12 85
e 18 85
e 28 85
e 43 85
e 45 85
e 47 85
e 50 85
e 51 85
e 53 85
e 58 85
e 60 85
e 67 85
e 77 85
e 79 85
e 17 86
e 22 86
e 27 86
e 29 86
e 35 86
e 38 86
e 50 86
e 51 86
e 54 86
e 55 86
e 57 86
e 58 86
e 61 86
e 62 86
e 67 86
e 70 86
e 73 86
e 76 86
e 79 86
e 82 86
e 84 86
e 14 87
e 15 87
e 19 87
e 39 87
e 52 87
e 53 87
e 54 87
e 66 87
e 70 87
e 71 87
e 73 87
e 78 87
e 79 87
e 8 88
e 11 88
e 15 88
e 17 88
e 21 88
e 22 88
e 31 88
e 32 88
e 36 88
e 46 88
e 49 88
e 64 88
e 68 88
e 69 88
e 75 88
e 85 88
e 86 88
e 1 89
e 9 89
e 13 89
e 16 89
e 19 89
e 27 89
e 30 89
e 31 89
e 35 89
e 37 89
e 39 89
e 41 89
e 45 89
e 48 89
e 55 89
e 56 89
e 63 89
e 71 89
e 81 89
e 84 89
e 86 89
e 4 90
e 5 90
e 7 90
e 8 90
e 11 90
e 26 90
e 33 90
e 45 90
e 46 90
e 48 90
e 49 90
e 62 90
e 63 90
e 73 90
e 74 90
e 87 90
e 5 91
e 8 91
e 9 91
e 10 91
e 11 91
e 14 91
e 17 91
e 23 91
e 25 91
e 27 91
e 29 91
e 34 91
e 48 91
e 49 91
e 68 91
e 77 91
e 79 91
e 83 91
e 84 91
e 1 92
e 6 92
e 11 92
e 16 92
e 36 92
e 38 92
e 39 92
e 55 92
e 60 92
e 63 92
e 66 92
e 68 92
e 77 92
e 78 92
e 81 92
e 83 92
e 85 92
e 87 92
e 88 92
e 3 93
e 5 93
e 8 93
e 21 93
e 24 93
e 26 93
e 28 93
e 30 93
e 37 93
e 44 93
e 56 93
e 59 93
e 66 93
e 69 93
e 71 93
e 77 93
e 91 93
e 2 94
e 7 94
e 8 94
e 28 94
e 29 94
e 43 94
e 45 94
e 47 94
e 54 94
e 55 94
e 58 94
e 63 94
e 69 94
e 73 94
e 81 94
e 84 94
e 91 94
e 93 94
e 7 95
e 10 95
e 12 95
e 17 95
e 21 95
e 29 95
e 32 95
e 35 95
e 36 95
e 41 95
e 42 95
e 43 95
e 52 95
e 63 95
e 68 95
e 69 95
e 74 95
e 77 95
e 79 95
e 83 95
e 85 95
e 3 96
e 6 96
e 11 96
e 30 96
e 35 96
e 40 96
e 41 96
e 44 96
e 55 96
e 56 96
e 57 96
e 58 96
e 61 96
e 70 96
e 73 96
e 75 96
e 81 96
e 83 96
e 85 96
e 94 96
e 1 97
e 13 97
e 21 97
e 23 97
e 26 97
e 29 97
e 30 97
e 31 97
e 32 97
e 34 97
e 36 97
e 47 97
e 50 97
e 52 97
e 53 97
e 62 97
e 64 97
e 66 97
e 67 97
e 74 97
e 87 97
e 93 97
e 94 97
e 14 98
e 15 98
e 18 98
e 24 98
e 30 98
e 40 98
e 41 98
e 46 98
e 57 98
e 61 98
e 62 98
e 72 98
e 74 98
e 75 98
e 79 98
e 88 98
e 92 98
e 95 98
e 97 98
e 2 99
e 11 99
e 13 99
e 18 99
e 23 99
e 24 99
e 28 99
e 35 99
e 45 99
e 47 99
e 49 99
e 60 99
e 64 99
e 65 99
e 67 99
e 86 99
e 87 99
e 90 99
e 94 99
e 96 99
e 98 99
e 1 100
e 2 100
e 6 100
e 7 100
e 8 100
e 11 100
e 19 100
e 21 100
e 36 100
e 39 100
e 41 100
e 45 100
e 50 100
e 52 100
e 62 100
e 70 100
e 71 100
e 72 100
e 79 100
e 80 100
e 81 100
e 91 100
e 96 100
